p cnf 200 1110
-101 88 0
-101 59 0
-101 -1 0
-101 22 0
-101 -69 0
-101 -67 0
-101 9 0
-101 43 0
-101 21 0
-101 -64 0
101 -88 -59 1 -22 69 67 -9 -43 -21 64 0
-102 74 0
-102 -56 0
-102 73 0
-102 69 0
-102 62 0
-102 54 0
-102 85 0
-102 65 0
-102 -9 0
-102 81 0
102 -74 56 -73 -69 -62 -54 -85 -65 9 -81 0
-103 47 0
-103 39 0
-103 94 0
-103 24 0
-103 25 0
-103 61 0
-103 -8 0
-103 55 0
-103 -49 0
-103 -13 0
103 -47 -39 -94 -24 -25 -61 8 -55 49 13 0
-104 -59 0
-104 33 0
-104 94 0
-104 77 0
-104 2 0
-104 8 0
-104 9 0
-104 80 0
-104 -57 0
-104 17 0
104 59 -33 -94 -77 -2 -8 -9 -80 57 -17 0
-105 82 0
-105 4 0
-105 62 0
-105 58 0
-105 -74 0
-105 -77 0
-105 -21 0
-105 14 0
-105 -45 0
-105 -61 0
105 -82 -4 -62 -58 74 77 21 -14 45 61 0
-106 85 0
-106 42 0
-106 95 0
-106 4 0
-106 -26 0
-106 35 0
-106 -64 0
-106 6 0
-106 -3 0
-106 -76 0
106 -85 -42 -95 -4 26 -35 64 -6 3 76 0
-107 -2 0
-107 6 0
-107 -27 0
-107 -22 0
-107 79 0
-107 -66 0
-107 -86 0
-107 8 0
-107 -81 0
-107 54 0
107 2 -6 27 22 -79 66 86 -8 81 -54 0
-108 -90 0
-108 2 0
-108 -15 0
-108 -76 0
-108 36 0
-108 -67 0
-108 3 0
-108 -82 0
-108 -13 0
-108 97 0
108 90 -2 15 76 -36 67 -3 82 13 -97 0
-109 -92 0
-109 57 0
-109 -72 0
-109 29 0
-109 -23 0
-109 -18 0
-109 -68 0
-109 38 0
-109 -19 0
-109 -69 0
109 92 -57 72 -29 23 18 68 -38 19 69 0
-110 64 0
-110 28 0
-110 86 0
-110 19 0
-110 4 0
-110 -46 0
-110 -56 0
-110 37 0
-110 27 0
-110 30 0
110 -64 -28 -86 -19 -4 46 56 -37 -27 -30 0
101 102 103 104 105 106 107 108 109 110 0
-111 49 0
-111 -44 0
-111 48 0
-111 -65 0
-111 99 0
-111 10 0
-111 30 0
-111 92 0
-111 -54 0
-111 -28 0
111 -49 44 -48 65 -99 -10 -30 -92 54 28 0
-112 -100 0
-112 -69 0
-112 -91 0
-112 76 0
-112 53 0
-112 -35 0
-112 65 0
-112 66 0
-112 80 0
-112 -94 0
112 100 69 91 -76 -53 35 -65 -66 -80 94 0
-113 -27 0
-113 75 0
-113 13 0
-113 6 0
-113 22 0
-113 -36 0
-113 -71 0
-113 99 0
-113 -17 0
-113 -43 0
113 27 -75 -13 -6 -22 36 71 -99 17 43 0
-114 -86 0
-114 -15 0
-114 67 0
-114 18 0
-114 -84 0
-114 -9 0
-114 -36 0
-114 17 0
-114 -49 0
-114 90 0
114 86 15 -67 -18 84 9 36 -17 49 -90 0
-115 65 0
-115 98 0
-115 77 0
-115 92 0
-115 3 0
-115 -80 0
-115 -81 0
-115 45 0
-115 89 0
-115 -62 0
115 -65 -98 -77 -92 -3 80 81 -45 -89 62 0
-116 -83 0
-116 -50 0
-116 -80 0
-116 94 0
-116 93 0
-116 -13 0
-116 -64 0
-116 -8 0
-116 -71 0
-116 -45 0
116 83 50 80 -94 -93 13 64 8 71 45 0
-117 21 0
-117 59 0
-117 -15 0
-117 -35 0
-117 -80 0
-117 84 0
-117 58 0
-117 -20 0
-117 29 0
-117 28 0
117 -21 -59 15 35 80 -84 -58 20 -29 -28 0
-118 14 0
-118 -47 0
-118 -85 0
-118 28 0
-118 95 0
-118 53 0
-118 -83 0
-118 -20 0
-118 32 0
-118 -21 0
118 -14 47 85 -28 -95 -53 83 20 -32 21 0
-119 92 0
-119 2 0
-119 -24 0
-119 -16 0
-119 -25 0
-119 -89 0
-119 -51 0
-119 -8 0
-119 -97 0
-119 61 0
119 -92 -2 24 16 25 89 51 8 97 -61 0
-120 36 0
-120 -34 0
-120 -77 0
-120 31 0
-120 -18 0
-120 -49 0
-120 73 0
-120 59 0
-120 14 0
-120 65 0
120 -36 34 77 -31 18 49 -73 -59 -14 -65 0
111 112 113 114 115 116 117 118 119 120 0
-121 77 0
-121 43 0
-121 41 0
-121 1 0
-121 99 0
-121 -86 0
-121 68 0
-121 -55 0
-121 -39 0
-121 -40 0
121 -77 -43 -41 -1 -99 86 -68 55 39 40 0
-122 9 0
-122 -88 0
-122 32 0
-122 75 0
-122 83 0
-122 -10 0
-122 99 0
-122 58 0
-122 57 0
-122 55 0
122 -9 88 -32 -75 -83 10 -99 -58 -57 -55 0
-123 -77 0
-123 -40 0
-123 -79 0
-123 21 0
-123 36 0
-123 -53 0
-123 84 0
-123 49 0
-123 99 0
-123 -69 0
123 77 40 79 -21 -36 53 -84 -49 -99 69 0
-124 -46 0
-124 -43 0
-124 17 0
-124 -50 0
-124 -59 0
-124 61 0
-124 -86 0
-124 -40 0
-124 20 0
-124 -52 0
124 46 43 -17 50 59 -61 86 40 -20 52 0
-125 55 0
-125 -21 0
-125 -37 0
-125 -13 0
-125 -32 0
-125 -88 0
-125 78 0
-125 54 0
-125 -45 0
-125 -99 0
125 -55 21 37 13 32 88 -78 -54 45 99 0
-126 -54 0
-126 91 0
-126 -79 0
-126 51 0
-126 -59 0
-126 100 0
-126 66 0
-126 40 0
-126 7 0
-126 -94 0
126 54 -91 79 -51 59 -100 -66 -40 -7 94 0
-127 67 0
-127 -19 0
-127 34 0
-127 87 0
-127 72 0
-127 -41 0
-127 15 0
-127 97 0
-127 -44 0
-127 -100 0
127 -67 19 -34 -87 -72 41 -15 -97 44 100 0
-128 -81 0
-128 -21 0
-128 -62 0
-128 6 0
-128 64 0
-128 -5 0
-128 -71 0
-128 98 0
-128 -11 0
-128 76 0
128 81 21 62 -6 -64 5 71 -98 11 -76 0
-129 55 0
-129 65 0
-129 -68 0
-129 10 0
-129 26 0
-129 30 0
-129 50 0
-129 -6 0
-129 79 0
-129 99 0
129 -55 -65 68 -10 -26 -30 -50 6 -79 -99 0
-130 -36 0
-130 -13 0
-130 -86 0
-130 2 0
-130 -52 0
-130 -23 0
-130 -64 0
-130 -49 0
-130 76 0
-130 67 0
130 36 13 86 -2 52 23 64 49 -76 -67 0
121 122 123 124 125 126 127 128 129 130 0
-131 51 0
-131 -33 0
-131 39 0
-131 -74 0
-131 -48 0
-131 28 0
-131 -62 0
-131 80 0
-131 -57 0
-131 -26 0
131 -51 33 -39 74 48 -28 62 -80 57 26 0
-132 -7 0
-132 18 0
-132 -62 0
-132 68 0
-132 -32 0
-132 -47 0
-132 38 0
-132 30 0
-132 90 0
-132 -11 0
132 7 -18 62 -68 32 47 -38 -30 -90 11 0
-133 39 0
-133 94 0
-133 96 0
-133 86 0
-133 -84 0
-133 -47 0
-133 -85 0
-133 88 0
-133 -46 0
-133 11 0
133 -39 -94 -96 -86 84 47 85 -88 46 -11 0
-134 -39 0
-134 24 0
-134 -93 0
-134 83 0
-134 -20 0
-134 87 0
-134 75 0
-134 -43 0
-134 46 0
-134 35 0
134 39 -24 93 -83 20 -87 -75 43 -46 -35 0
-135 -5 0
-135 13 0
-135 -96 0
-135 30 0
-135 54 0
-135 -9 0
-135 85 0
-135 -89 0
-135 -22 0
-135 -27 0
135 5 -13 96 -30 -54 9 -85 89 22 27 0
-136 14 0
-136 99 0
-136 8 0
-136 -93 0
-136 40 0
-136 78 0
-136 -34 0
-136 52 0
-136 -45 0
-136 95 0
136 -14 -99 -8 93 -40 -78 34 -52 45 -95 0
-137 31 0
-137 32 0
-137 -57 0
-137 -80 0
-137 -83 0
-137 -98 0
-137 -11 0
-137 -50 0
-137 -68 0
-137 71 0
137 -31 -32 57 80 83 98 11 50 68 -71 0
-138 95 0
-138 64 0
-138 29 0
-138 24 0
-138 87 0
-138 -100 0
-138 43 0
-138 69 0
-138 92 0
-138 -23 0
138 -95 -64 -29 -24 -87 100 -43 -69 -92 23 0
-139 -14 0
-139 -28 0
-139 -75 0
-139 -18 0
-139 -54 0
-139 21 0
-139 66 0
-139 9 0
-139 -71 0
-139 -41 0
139 14 28 75 18 54 -21 -66 -9 71 41 0
-140 -42 0
-140 48 0
-140 39 0
-140 -41 0
-140 89 0
-140 10 0
-140 85 0
-140 -65 0
-140 -31 0
-140 -28 0
140 42 -48 -39 41 -89 -10 -85 65 31 28 0
131 132 133 134 135 136 137 138 139 140 0
-141 100 0
-141 -46 0
-141 -60 0
-141 72 0
-141 -11 0
-141 -53 0
-141 24 0
-141 98 0
-141 81 0
-141 -23 0
141 -100 46 60 -72 11 53 -24 -98 -81 23 0
-142 -45 0
-142 20 0
-142 -64 0
-142 -57 0
-142 19 0
-142 -15 0
-142 14 0
-142 -54 0
-142 80 0
-142 97 0
142 45 -20 64 57 -19 15 -14 54 -80 -97 0
-143 -19 0
-143 -73 0
-143 69 0
-143 -47 0
-143 75 0
-143 22 0
-143 -32 0
-143 29 0
-143 89 0
-143 -81 0
143 19 73 -69 47 -75 -22 32 -29 -89 81 0
-144 41 0
-144 -46 0
-144 -92 0
-144 29 0
-144 87 0
-144 99 0
-144 79 0
-144 36 0
-144 13 0
-144 50 0
144 -41 46 92 -29 -87 -99 -79 -36 -13 -50 0
-145 -2 0
-145 81 0
-145 -47 0
-145 8 0
-145 -50 0
-145 31 0
-145 -4 0
-145 -70 0
-145 30 0
-145 -37 0
145 2 -81 47 -8 50 -31 4 70 -30 37 0
-146 31 0
-146 -37 0
-146 56 0
-146 -6 0
-146 21 0
-146 -11 0
-146 -72 0
-146 -80 0
-146 -39 0
-146 -67 0
146 -31 37 -56 6 -21 11 72 80 39 67 0
-147 -73 0
-147 91 0
-147 17 0
-147 33 0
-147 100 0
-147 -8 0
-147 -7 0
-147 56 0
-147 -6 0
-147 -68 0
147 73 -91 -17 -33 -100 8 7 -56 6 68 0
-148 80 0
-148 37 0
-148 -31 0
-148 39 0
-148 -27 0
-148 -60 0
-148 -23 0
-148 3 0
-148 59 0
-148 7 0
148 -80 -37 31 -39 27 60 23 -3 -59 -7 0
-149 90 0
-149 69 0
-149 80 0
-149 16 0
-149 73 0
-149 52 0
-149 -42 0
-149 -21 0
-149 48 0
-149 -39 0
149 -90 -69 -80 -16 -73 -52 42 21 -48 39 0
-150 75 0
-150 23 0
-150 -44 0
-150 -21 0
-150 -91 0
-150 82 0
-150 -8 0
-150 -52 0
-150 37 0
-150 -68 0
150 -75 -23 44 21 91 -82 8 52 -37 68 0
141 142 143 144 145 146 147 148 149 150 0
-151 -84 0
-151 -55 0
-151 -42 0
-151 85 0
-151 35 0
-151 -80 0
-151 -89 0
-151 87 0
-151 -68 0
-151 43 0
151 84 55 42 -85 -35 80 89 -87 68 -43 0
-152 93 0
-152 69 0
-152 -68 0
-152 -36 0
-152 -64 0
-152 -82 0
-152 60 0
-152 -45 0
-152 -50 0
-152 -81 0
152 -93 -69 68 36 64 82 -60 45 50 81 0
-153 95 0
-153 5 0
-153 88 0
-153 -59 0
-153 -14 0
-153 18 0
-153 66 0
-153 7 0
-153 -12 0
-153 8 0
153 -95 -5 -88 59 14 -18 -66 -7 12 -8 0
-154 82 0
-154 -2 0
-154 80 0
-154 89 0
-154 -68 0
-154 34 0
-154 -12 0
-154 20 0
-154 47 0
-154 16 0
154 -82 2 -80 -89 68 -34 12 -20 -47 -16 0
-155 -41 0
-155 28 0
-155 86 0
-155 -56 0
-155 67 0
-155 -80 0
-155 -14 0
-155 -73 0
-155 -8 0
-155 -87 0
155 41 -28 -86 56 -67 80 14 73 8 87 0
-156 84 0
-156 83 0
-156 -78 0
-156 43 0
-156 -85 0
-156 3 0
-156 -90 0
-156 31 0
-156 -19 0
-156 -23 0
156 -84 -83 78 -43 85 -3 90 -31 19 23 0
-157 21 0
-157 -30 0
-157 -99 0
-157 -56 0
-157 76 0
-157 95 0
-157 -66 0
-157 29 0
-157 -41 0
-157 -93 0
157 -21 30 99 56 -76 -95 66 -29 41 93 0
-158 98 0
-158 7 0
-158 70 0
-158 -2 0
-158 -84 0
-158 -85 0
-158 94 0
-158 -49 0
-158 17 0
-158 83 0
158 -98 -7 -70 2 84 85 -94 49 -17 -83 0
-159 95 0
-159 81 0
-159 -100 0
-159 32 0
-159 20 0
-159 -82 0
-159 91 0
-159 -25 0
-159 -7 0
-159 -93 0
159 -95 -81 100 -32 -20 82 -91 25 7 93 0
-160 -10 0
-160 -74 0
-160 -22 0
-160 -73 0
-160 45 0
-160 -9 0
-160 -51 0
-160 -86 0
-160 99 0
-160 68 0
160 10 74 22 73 -45 9 51 86 -99 -68 0
151 152 153 154 155 156 157 158 159 160 0
-161 76 0
-161 -80 0
-161 -82 0
-161 6 0
-161 63 0
-161 35 0
-161 -50 0
-161 95 0
-161 -85 0
-161 86 0
161 -76 80 82 -6 -63 -35 50 -95 85 -86 0
-162 -68 0
-162 -21 0
-162 22 0
-162 78 0
-162 -37 0
-162 -70 0
-162 100 0
-162 -85 0
-162 -14 0
-162 87 0
162 68 21 -22 -78 37 70 -100 85 14 -87 0
-163 69 0
-163 -25 0
-163 -5 0
-163 18 0
-163 -24 0
-163 30 0
-163 39 0
-163 -42 0
-163 86 0
-163 -70 0
163 -69 25 5 -18 24 -30 -39 42 -86 70 0
-164 49 0
-164 19 0
-164 -3 0
-164 -12 0
-164 -89 0
-164 -92 0
-164 -32 0
-164 23 0
-164 -87 0
-164 -95 0
164 -49 -19 3 12 89 92 32 -23 87 95 0
-165 -92 0
-165 -89 0
-165 -98 0
-165 21 0
-165 -42 0
-165 -67 0
-165 46 0
-165 -4 0
-165 62 0
-165 -97 0
165 92 89 98 -21 42 67 -46 4 -62 97 0
-166 10 0
-166 -55 0
-166 33 0
-166 -72 0
-166 -85 0
-166 45 0
-166 -3 0
-166 53 0
-166 -78 0
-166 83 0
166 -10 55 -33 72 85 -45 3 -53 78 -83 0
-167 -12 0
-167 -93 0
-167 49 0
-167 -5 0
-167 -97 0
-167 56 0
-167 -89 0
-167 -41 0
-167 26 0
-167 32 0
167 12 93 -49 5 97 -56 89 41 -26 -32 0
-168 -10 0
-168 89 0
-168 71 0
-168 -73 0
-168 78 0
-168 20 0
-168 5 0
-168 -64 0
-168 6 0
-168 -21 0
168 10 -89 -71 73 -78 -20 -5 64 -6 21 0
-169 32 0
-169 -82 0
-169 71 0
-169 -33 0
-169 92 0
-169 27 0
-169 11 0
-169 59 0
-169 38 0
-169 -25 0
169 -32 82 -71 33 -92 -27 -11 -59 -38 25 0
-170 95 0
-170 47 0
-170 25 0
-170 72 0
-170 -76 0
-170 -53 0
-170 -11 0
-170 -9 0
-170 56 0
-170 -17 0
170 -95 -47 -25 -72 76 53 11 9 -56 17 0
161 162 163 164 165 166 167 168 169 170 0
-171 -10 0
-171 -37 0
-171 -51 0
-171 -42 0
-171 -25 0
-171 39 0
-171 -50 0
-171 -5 0
-171 -2 0
-171 47 0
171 10 37 51 42 25 -39 50 5 2 -47 0
-172 -80 0
-172 56 0
-172 -28 0
-172 -76 0
-172 3 0
-172 22 0
-172 -42 0
-172 78 0
-172 -51 0
-172 72 0
172 80 -56 28 76 -3 -22 42 -78 51 -72 0
-173 -98 0
-173 82 0
-173 -68 0
-173 21 0
-173 -2 0
-173 47 0
-173 64 0
-173 90 0
-173 -56 0
-173 -29 0
173 98 -82 68 -21 2 -47 -64 -90 56 29 0
-174 86 0
-174 1 0
-174 -63 0
-174 78 0
-174 -20 0
-174 -72 0
-174 37 0
-174 -97 0
-174 -30 0
-174 69 0
174 -86 -1 63 -78 20 72 -37 97 30 -69 0
-175 96 0
-175 21 0
-175 69 0
-175 16 0
-175 -43 0
-175 -92 0
-175 -60 0
-175 -61 0
-175 -36 0
-175 -26 0
175 -96 -21 -69 -16 43 92 60 61 36 26 0
-176 -43 0
-176 -29 0
-176 10 0
-176 -44 0
-176 64 0
-176 54 0
-176 6 0
-176 23 0
-176 -96 0
-176 -34 0
176 43 29 -10 44 -64 -54 -6 -23 96 34 0
-177 -47 0
-177 5 0
-177 -53 0
-177 -42 0
-177 35 0
-177 24 0
-177 -22 0
-177 -60 0
-177 -76 0
-177 88 0
177 47 -5 53 42 -35 -24 22 60 76 -88 0
-178 -95 0
-178 -51 0
-178 22 0
-178 43 0
-178 -56 0
-178 87 0
-178 -6 0
-178 60 0
-178 -7 0
-178 -80 0
178 95 51 -22 -43 56 -87 6 -60 7 80 0
-179 -74 0
-179 -62 0
-179 57 0
-179 73 0
-179 -5 0
-179 43 0
-179 -23 0
-179 46 0
-179 -82 0
-179 12 0
179 74 62 -57 -73 5 -43 23 -46 82 -12 0
-180 74 0
-180 -76 0
-180 73 0
-180 -21 0
-180 96 0
-180 -46 0
-180 31 0
-180 -71 0
-180 94 0
-180 -19 0
180 -74 76 -73 21 -96 46 -31 71 -94 19 0
171 172 173 174 175 176 177 178 179 180 0
-181 15 0
-181 78 0
-181 48 0
-181 -18 0
-181 -38 0
-181 1 0
-181 -17 0
-181 56 0
-181 -33 0
-181 -11 0
181 -15 -78 -48 18 38 -1 17 -56 33 11 0
-182 18 0
-182 32 0
-182 -61 0
-182 -83 0
-182 -1 0
-182 94 0
-182 -21 0
-182 56 0
-182 99 0
-182 85 0
182 -18 -32 61 83 1 -94 21 -56 -99 -85 0
-183 91 0
-183 80 0
-183 -26 0
-183 -22 0
-183 -78 0
-183 -27 0
-183 -42 0
-183 -75 0
-183 -35 0
-183 51 0
183 -91 -80 26 22 78 27 42 75 35 -51 0
-184 -31 0
-184 37 0
-184 -57 0
-184 6 0
-184 22 0
-184 -56 0
-184 91 0
-184 97 0
-184 -77 0
-184 -71 0
184 31 -37 57 -6 -22 56 -91 -97 77 71 0
-185 42 0
-185 -13 0
-185 53 0
-185 -94 0
-185 2 0
-185 -89 0
-185 -84 0
-185 -86 0
-185 16 0
-185 -41 0
185 -42 13 -53 94 -2 89 84 86 -16 41 0
-186 70 0
-186 -13 0
-186 -94 0
-186 71 0
-186 25 0
-186 -56 0
-186 -91 0
-186 89 0
-186 43 0
-186 83 0
186 -70 13 94 -71 -25 56 91 -89 -43 -83 0
-187 38 0
-187 91 0
-187 72 0
-187 -40 0
-187 96 0
-187 -11 0
-187 46 0
-187 -69 0
-187 -24 0
-187 93 0
187 -38 -91 -72 40 -96 11 -46 69 24 -93 0
-188 43 0
-188 -21 0
-188 -64 0
-188 -35 0
-188 -99 0
-188 91 0
-188 -6 0
-188 32 0
-188 80 0
-188 -76 0
188 -43 21 64 35 99 -91 6 -32 -80 76 0
-189 22 0
-189 6 0
-189 -43 0
-189 -52 0
-189 92 0
-189 49 0
-189 -50 0
-189 53 0
-189 88 0
-189 79 0
189 -22 -6 43 52 -92 -49 50 -53 -88 -79 0
-190 -37 0
-190 -41 0
-190 72 0
-190 76 0
-190 -23 0
-190 -54 0
-190 -62 0
-190 93 0
-190 20 0
-190 17 0
190 37 41 -72 -76 23 54 62 -93 -20 -17 0
181 182 183 184 185 186 187 188 189 190 0
-191 100 0
-191 54 0
-191 -66 0
-191 7 0
-191 -60 0
-191 25 0
-191 40 0
-191 -88 0
-191 -35 0
-191 48 0
191 -100 -54 66 -7 60 -25 -40 88 35 -48 0
-192 -46 0
-192 17 0
-192 -68 0
-192 -7 0
-192 30 0
-192 -44 0
-192 -28 0
-192 -75 0
-192 6 0
-192 -38 0
192 46 -17 68 7 -30 44 28 75 -6 38 0
-193 87 0
-193 -72 0
-193 93 0
-193 13 0
-193 54 0
-193 -27 0
-193 -32 0
-193 -84 0
-193 5 0
-193 62 0
193 -87 72 -93 -13 -54 27 32 84 -5 -62 0
-194 53 0
-194 87 0
-194 -12 0
-194 93 0
-194 -27 0
-194 57 0
-194 3 0
-194 77 0
-194 -23 0
-194 -8 0
194 -53 -87 12 -93 27 -57 -3 -77 23 8 0
-195 -52 0
-195 15 0
-195 -62 0
-195 93 0
-195 -77 0
-195 -31 0
-195 -65 0
-195 -70 0
-195 -100 0
-195 34 0
195 52 -15 62 -93 77 31 65 70 100 -34 0
-196 -47 0
-196 21 0
-196 -77 0
-196 -78 0
-196 91 0
-196 -96 0
-196 16 0
-196 -71 0
-196 -13 0
-196 89 0
196 47 -21 77 78 -91 96 -16 71 13 -89 0
-197 44 0
-197 -53 0
-197 39 0
-197 -57 0
-197 -36 0
-197 -86 0
-197 41 0
-197 -10 0
-197 23 0
-197 34 0
197 -44 53 -39 57 36 86 -41 10 -23 -34 0
-198 -7 0
-198 -86 0
-198 9 0
-198 18 0
-198 -40 0
-198 91 0
-198 -14 0
-198 64 0
-198 -19 0
-198 -51 0
198 7 86 -9 -18 40 -91 14 -64 19 51 0
-199 76 0
-199 15 0
-199 14 0
-199 -59 0
-199 -26 0
-199 45 0
-199 83 0
-199 97 0
-199 -88 0
-199 34 0
199 -76 -15 -14 59 26 -45 -83 -97 88 -34 0
-200 -51 0
-200 -52 0
-200 -87 0
-200 -72 0
-200 83 0
-200 73 0
-200 -100 0
-200 95 0
-200 5 0
-200 61 0
200 51 52 87 72 -83 -73 100 -95 -5 -61 0
191 192 193 194 195 196 197 198 199 200 0
